unsat
( c0
  c1
  c10
  c100
  c1000
  c1001
  c1002
  c1003
  c101
  c1013
  c1014
  c1015
  c1016
  c1017
  c1019
  c102
  c1020
  c1021
  c1022
  c1024
  c1025
  c1029
  c103
  c1030
  c1031
  c1032
  c1033
  c1035
  c1036
  c1037
  c1038
  c104
  c1040
  c1041
  c1042
  c1043
  c1044
  c1046
  c1047
  c1049
  c105
  c1050
  c1051
  c1052
  c1053
  c1054
  c1055
  c1056
  c1057
  c1058
  c1059
  c106
  c1060
  c1061
  c1062
  c1063
  c1064
  c1065
  c1066
  c1067
  c1068
  c1069
  c107
  c1070
  c1071
  c1072
  c1073
  c1074
  c1075
  c1076
  c1077
  c1078
  c1079
  c108
  c1080
  c1081
  c1082
  c1083
  c1084
  c1085
  c1086
  c1087
  c1088
  c1089
  c109
  c1090
  c1091
  c1092
  c1093
  c1094
  c1095
  c1096
  c1097
  c1098
  c1099
  c11
  c110
  c1100
  c1101
  c1102
  c1103
  c1104
  c1105
  c1106
  c1107
  c1108
  c1109
  c111
  c1110
  c1111
  c1112
  c1113
  c112
  c1123
  c1124
  c1125
  c1126
  c1127
  c1129
  c113
  c1130
  c1131
  c1132
  c1134
  c1135
  c1139
  c114
  c1140
  c1141
  c1142
  c1143
  c1145
  c1146
  c1147
  c1148
  c115
  c1150
  c1151
  c1152
  c1153
  c1154
  c1156
  c1157
  c1159
  c116
  c1160
  c1161
  c1162
  c1163
  c1164
  c1165
  c1166
  c1167
  c1168
  c1169
  c117
  c1170
  c1171
  c1172
  c1173
  c1174
  c1175
  c1176
  c1177
  c1178
  c1179
  c118
  c1180
  c1181
  c1182
  c1183
  c1184
  c1185
  c1186
  c1187
  c1188
  c1189
  c119
  c1190
  c1191
  c1192
  c1193
  c1194
  c1195
  c1196
  c1197
  c1198
  c1199
  c12
  c120
  c1200
  c1201
  c1202
  c1203
  c1204
  c1205
  c1206
  c1207
  c1208
  c1209
  c121
  c1210
  c1211
  c1212
  c1213
  c1214
  c1215
  c1216
  c1217
  c1218
  c1219
  c122
  c1220
  c1221
  c1222
  c1223
  c123
  c1233
  c1234
  c1235
  c1236
  c1237
  c1239
  c124
  c1240
  c1241
  c1242
  c1244
  c1245
  c1249
  c125
  c1250
  c1251
  c1252
  c1253
  c1255
  c1256
  c1257
  c1258
  c126
  c1260
  c1261
  c1262
  c1263
  c1264
  c1266
  c1267
  c1269
  c127
  c1270
  c1271
  c1272
  c1273
  c1274
  c1275
  c1276
  c1277
  c1278
  c1279
  c128
  c1280
  c1281
  c1282
  c1283
  c1284
  c1285
  c1286
  c1287
  c1288
  c1289
  c129
  c1290
  c1291
  c1292
  c1293
  c1294
  c1295
  c1296
  c1297
  c1298
  c1299
  c13
  c130
  c1300
  c1301
  c1302
  c1303
  c1304
  c1305
  c1306
  c1307
  c1308
  c1309
  c131
  c1310
  c1311
  c1312
  c1313
  c1314
  c1315
  c1316
  c1317
  c1318
  c1319
  c132
  c1320
  c1321
  c1322
  c1323
  c1324
  c1325
  c1326
  c1327
  c1328
  c1329
  c133
  c1330
  c1331
  c1332
  c1333
  c134
  c1343
  c1344
  c1345
  c1346
  c1347
  c1349
  c135
  c1350
  c1351
  c1352
  c1354
  c1355
  c1359
  c136
  c1360
  c1361
  c1362
  c1363
  c1365
  c1366
  c1367
  c1368
  c137
  c1370
  c1371
  c1372
  c1373
  c1374
  c1376
  c1377
  c1379
  c138
  c1380
  c1381
  c1382
  c1383
  c1384
  c1385
  c1386
  c1387
  c1388
  c1389
  c139
  c1390
  c1391
  c1392
  c1393
  c1394
  c1395
  c1396
  c1397
  c1398
  c1399
  c14
  c140
  c1400
  c1401
  c1402
  c1403
  c1404
  c1405
  c1406
  c1407
  c1408
  c1409
  c141
  c1410
  c1411
  c1412
  c1413
  c1414
  c1415
  c1416
  c1417
  c1418
  c1419
  c142
  c1420
  c1421
  c1422
  c1423
  c1424
  c1425
  c1426
  c1427
  c1428
  c1429
  c143
  c1430
  c1431
  c1432
  c1433
  c1434
  c1435
  c1436
  c1437
  c1438
  c1439
  c144
  c1440
  c1441
  c1442
  c1443
  c145
  c1453
  c1454
  c1455
  c1456
  c1457
  c1459
  c146
  c1460
  c1461
  c1462
  c1464
  c1465
  c1469
  c147
  c1470
  c1471
  c1472
  c1473
  c1475
  c1476
  c1477
  c1478
  c148
  c1480
  c1481
  c1482
  c1483
  c1484
  c1486
  c1487
  c1489
  c149
  c1490
  c1491
  c1492
  c1493
  c1494
  c1495
  c1496
  c1497
  c1498
  c1499
  c15
  c150
  c1500
  c1501
  c1502
  c1503
  c1504
  c1505
  c1506
  c1507
  c1508
  c1509
  c151
  c1510
  c1511
  c1512
  c1513
  c1514
  c1515
  c1516
  c1517
  c1518
  c1519
  c152
  c1520
  c1521
  c1522
  c1523
  c1524
  c1525
  c1526
  c1527
  c1528
  c1529
  c153
  c1530
  c1531
  c1532
  c1533
  c1534
  c1535
  c1536
  c1537
  c1538
  c1539
  c154
  c1540
  c1541
  c1542
  c1543
  c1544
  c1545
  c1546
  c1547
  c1548
  c1549
  c155
  c1550
  c1551
  c1552
  c1553
  c156
  c1563
  c1564
  c1565
  c1566
  c1567
  c1569
  c157
  c1570
  c1571
  c1572
  c1574
  c1575
  c1579
  c158
  c1580
  c1581
  c1582
  c1583
  c1585
  c1586
  c1587
  c1588
  c159
  c1590
  c1591
  c1592
  c1593
  c1594
  c1596
  c1597
  c1599
  c16
  c160
  c1600
  c1601
  c1602
  c1603
  c1604
  c1605
  c1606
  c1607
  c1608
  c1609
  c161
  c1610
  c1611
  c1612
  c1613
  c1614
  c1615
  c1616
  c1617
  c1618
  c1619
  c162
  c1620
  c1621
  c1622
  c1623
  c1624
  c1625
  c1626
  c1627
  c1628
  c1629
  c163
  c1630
  c1631
  c1632
  c1633
  c1634
  c1635
  c1636
  c1637
  c1638
  c1639
  c164
  c1640
  c1641
  c1642
  c1643
  c1644
  c1645
  c1646
  c1647
  c1648
  c1649
  c165
  c1650
  c1651
  c1652
  c1653
  c1654
  c1655
  c1656
  c1657
  c1658
  c1659
  c166
  c1660
  c1661
  c1662
  c1663
  c167
  c1673
  c1674
  c1675
  c1676
  c1677
  c1679
  c168
  c1680
  c1681
  c1682
  c1684
  c1685
  c1689
  c169
  c1690
  c1691
  c1692
  c1693
  c1695
  c1696
  c1697
  c1698
  c17
  c170
  c1700
  c1701
  c1702
  c1703
  c1704
  c1706
  c1707
  c1709
  c171
  c1710
  c1711
  c1712
  c1713
  c1714
  c1715
  c1716
  c1717
  c1718
  c1719
  c172
  c1720
  c1721
  c1722
  c1723
  c1724
  c1725
  c1726
  c1727
  c1728
  c1729
  c173
  c1730
  c1731
  c1732
  c1733
  c1734
  c1735
  c1736
  c1737
  c1738
  c1739
  c174
  c1740
  c1741
  c1742
  c1743
  c1744
  c1745
  c1746
  c1747
  c1748
  c1749
  c175
  c1750
  c1751
  c1752
  c1753
  c1754
  c1755
  c1756
  c1757
  c1758
  c1759
  c176
  c1760
  c1761
  c1762
  c1763
  c1764
  c1765
  c1766
  c1767
  c1768
  c1769
  c177
  c1770
  c1771
  c1772
  c1773
  c178
  c1783
  c1784
  c1785
  c1786
  c1787
  c1789
  c179
  c1790
  c1791
  c1792
  c1794
  c1795
  c1799
  c18
  c180
  c1800
  c1801
  c1802
  c1803
  c1805
  c1806
  c1807
  c1808
  c181
  c1810
  c1811
  c1812
  c1813
  c1814
  c1816
  c1817
  c1819
  c182
  c1820
  c1821
  c1822
  c1823
  c1824
  c1825
  c1826
  c1827
  c1828
  c1829
  c183
  c1830
  c1831
  c1832
  c1833
  c1834
  c1835
  c1836
  c1837
  c1838
  c1839
  c184
  c1840
  c1841
  c1842
  c1843
  c1844
  c1845
  c1846
  c1847
  c1848
  c1849
  c185
  c1850
  c1851
  c1852
  c1853
  c1854
  c1855
  c1856
  c1857
  c1858
  c1859
  c186
  c1860
  c1861
  c1862
  c1863
  c1864
  c1865
  c1866
  c1867
  c1868
  c1869
  c187
  c1870
  c1871
  c1872
  c1873
  c1874
  c1875
  c1876
  c1877
  c1878
  c1879
  c188
  c1880
  c1881
  c1882
  c1883
  c189
  c1893
  c1894
  c1895
  c1896
  c1897
  c1899
  c19
  c190
  c1900
  c1901
  c1902
  c1904
  c1905
  c1909
  c1910
  c1911
  c1912
  c1913
  c1915
  c1916
  c1917
  c1918
  c192
  c1920
  c1921
  c1922
  c1923
  c1924
  c1926
  c1927
  c1929
  c193
  c1930
  c1931
  c1932
  c1933
  c1934
  c1935
  c1936
  c1937
  c1938
  c1939
  c194
  c1940
  c1941
  c1942
  c1943
  c1944
  c1945
  c1946
  c1947
  c1948
  c1949
  c195
  c1950
  c1951
  c1952
  c1953
  c1954
  c1955
  c1956
  c1957
  c1958
  c1959
  c196
  c1960
  c1961
  c1962
  c1963
  c1964
  c1965
  c1966
  c1967
  c1968
  c1969
  c197
  c1970
  c1971
  c1972
  c1973
  c1974
  c1975
  c1976
  c1977
  c1978
  c1979
  c198
  c1980
  c1981
  c1982
  c1983
  c1984
  c1985
  c1986
  c1987
  c1988
  c1989
  c199
  c1990
  c1991
  c1992
  c1993
  c2
  c20
  c200
  c2003
  c201
  c202
  c203
  c204
  c205
  c206
  c207
  c208
  c209
  c21
  c210
  c211
  c212
  c213
  c214
  c215
  c216
  c217
  c218
  c219
  c22
  c220
  c2204
  c221
  c222
  c2225
  c223
  c2237
  c2238
  c2239
  c224
  c2240
  c2241
  c2242
  c2243
  c2244
  c2245
  c2246
  c2247
  c2248
  c2249
  c225
  c2250
  c2251
  c2252
  c2253
  c2254
  c2255
  c2256
  c2257
  c2258
  c2259
  c226
  c2260
  c2261
  c2262
  c2263
  c2264
  c2265
  c2266
  c2267
  c2268
  c2269
  c227
  c2270
  c2271
  c2272
  c2273
  c2274
  c2275
  c2276
  c2277
  c2278
  c2279
  c228
  c2280
  c2281
  c2282
  c2283
  c2284
  c2285
  c2286
  c2287
  c2288
  c2289
  c229
  c2290
  c2291
  c2292
  c2293
  c2294
  c2295
  c2296
  c2297
  c2298
  c2299
  c23
  c230
  c2300
  c2301
  c2302
  c2303
  c2304
  c2305
  c2306
  c231
  c232
  c234
  c235
  c236
  c237
  c238
  c239
  c24
  c240
  c241
  c2417
  c242
  c2428
  c2429
  c243
  c2430
  c2431
  c2432
  c2433
  c2434
  c2435
  c2436
  c2437
  c2438
  c2439
  c244
  c2440
  c2441
  c2442
  c2443
  c2444
  c2445
  c2446
  c2447
  c2448
  c2449
  c245
  c2450
  c2451
  c2452
  c2453
  c2454
  c2455
  c2456
  c2457
  c2458
  c2459
  c246
  c2460
  c2462
  c2463
  c2464
  c2465
  c2466
  c2467
  c2468
  c2469
  c247
  c2470
  c2471
  c2472
  c2473
  c2474
  c2475
  c2476
  c2477
  c2478
  c2479
  c248
  c2480
  c2481
  c2482
  c2483
  c2484
  c2485
  c2486
  c2489
  c249
  c2490
  c2493
  c2494
  c2497
  c2498
  c25
  c250
  c2501
  c2502
  c2505
  c2506
  c2509
  c251
  c2510
  c2513
  c2514
  c2517
  c2518
  c252
  c2521
  c2522
  c2525
  c2526
  c2528
  c2529
  c253
  c2531
  c2532
  c2534
  c2535
  c2537
  c2538
  c254
  c2540
  c2541
  c2543
  c2544
  c2546
  c2547
  c2549
  c255
  c2550
  c2552
  c2553
  c2555
  c2556
  c256
  c2561
  c2562
  c2567
  c2568
  c257
  c2573
  c2574
  c2579
  c258
  c2580
  c2585
  c2586
  c259
  c2591
  c2592
  c2597
  c2598
  c26
  c260
  c2603
  c2604
  c2609
  c261
  c2610
  c2615
  c2616
  c262
  c2621
  c2622
  c2627
  c2628
  c263
  c2633
  c2634
  c2639
  c264
  c2640
  c2645
  c2646
  c265
  c2651
  c2652
  c2657
  c2658
  c266
  c2663
  c2664
  c2669
  c267
  c2670
  c2675
  c2676
  c2677
  c268
  c2681
  c2682
  c2683
  c2687
  c2688
  c2689
  c269
  c2693
  c2694
  c2695
  c2699
  c27
  c270
  c2700
  c2701
  c2705
  c2706
  c2707
  c271
  c2711
  c2712
  c2713
  c2717
  c2718
  c2719
  c272
  c2723
  c2724
  c2725
  c2729
  c273
  c2730
  c2731
  c2735
  c2736
  c2739
  c274
  c2740
  c2743
  c2744
  c2747
  c2748
  c275
  c2751
  c2752
  c2755
  c2756
  c2759
  c276
  c2760
  c2763
  c2764
  c2767
  c2768
  c277
  c2771
  c2772
  c2775
  c2776
  c2777
  c2778
  c2779
  c278
  c2780
  c2781
  c2782
  c2783
  c2784
  c2786
  c2787
  c279
  c2790
  c2791
  c2794
  c2795
  c2798
  c2799
  c28
  c280
  c2802
  c2803
  c2806
  c2807
  c281
  c2812
  c2815
  c2818
  c282
  c2821
  c2822
  c2823
  c2824
  c2825
  c2826
  c2827
  c2828
  c2829
  c283
  c2830
  c2831
  c2832
  c2833
  c2834
  c2835
  c2836
  c2837
  c284
  c285
  c286
  c287
  c288
  c289
  c29
  c290
  c291
  c292
  c293
  c294
  c295
  c296
  c297
  c298
  c299
  c3
  c30
  c300
  c301
  c302
  c303
  c304
  c305
  c306
  c307
  c308
  c309
  c31
  c310
  c311
  c312
  c313
  c314
  c315
  c316
  c317
  c318
  c319
  c32
  c33
  c34
  c35
  c36
  c37
  c38
  c39
  c4
  c40
  c41
  c42
  c43
  c44
  c45
  c46
  c47
  c48
  c49
  c5
  c50
  c51
  c52
  c521
  c524
  c53
  c535
  c537
  c54
  c540
  c541
  c542
  c543
  c544
  c545
  c546
  c547
  c548
  c55
  c550
  c551
  c552
  c553
  c554
  c555
  c556
  c557
  c558
  c559
  c56
  c560
  c561
  c562
  c563
  c564
  c565
  c566
  c567
  c568
  c569
  c57
  c570
  c58
  c59
  c591
  c592
  c593
  c594
  c595
  c596
  c597
  c598
  c599
  c6
  c60
  c600
  c601
  c602
  c603
  c604
  c605
  c606
  c607
  c608
  c609
  c61
  c610
  c611
  c612
  c613
  c614
  c615
  c616
  c617
  c618
  c619
  c62
  c620
  c63
  c64
  c65
  c66
  c67
  c68
  c69
  c7
  c70
  c701
  c702
  c703
  c704
  c705
  c706
  c707
  c708
  c709
  c71
  c710
  c711
  c712
  c713
  c714
  c715
  c716
  c717
  c718
  c719
  c72
  c720
  c73
  c74
  c75
  c76
  c77
  c78
  c79
  c8
  c80
  c801
  c802
  c803
  c804
  c805
  c806
  c807
  c808
  c809
  c81
  c810
  c812
  c818
  c819
  c82
  c821
  c822
  c823
  c824
  c825
  c826
  c827
  c828
  c829
  c83
  c830
  c831
  c832
  c839
  c84
  c841
  c842
  c843
  c844
  c845
  c846
  c847
  c848
  c849
  c85
  c850
  c851
  c852
  c853
  c854
  c855
  c856
  c857
  c858
  c859
  c86
  c860
  c861
  c862
  c863
  c864
  c865
  c866
  c867
  c868
  c869
  c87
  c870
  c871
  c872
  c873
  c874
  c875
  c876
  c877
  c878
  c879
  c88
  c880
  c881
  c882
  c886
  c89
  c890
  c892
  c893
  c894
  c895
  c896
  c897
  c898
  c899
  c9
  c90
  c900
  c901
  c902
  c903
  c904
  c905
  c906
  c907
  c909
  c91
  c910
  c911
  c912
  c914
  c915
  c919
  c92
  c920
  c921
  c922
  c923
  c925
  c926
  c927
  c928
  c93
  c930
  c931
  c932
  c933
  c934
  c936
  c937
  c939
  c94
  c940
  c941
  c942
  c943
  c944
  c945
  c946
  c947
  c948
  c949
  c95
  c950
  c951
  c952
  c953
  c954
  c955
  c956
  c957
  c958
  c959
  c96
  c960
  c961
  c962
  c963
  c964
  c965
  c966
  c967
  c968
  c969
  c97
  c970
  c971
  c972
  c973
  c974
  c975
  c976
  c977
  c978
  c979
  c98
  c980
  c981
  c982
  c983
  c984
  c985
  c986
  c987
  c988
  c989
  c99
  c990
  c991
  c992
  c993
  c994
  c995
  c996
  c997
  c998
  c999 )
